p cnf 232 170
c p distribution  0.875 0.125
c p distribution  0.875 0.125
c p distribution  0.875 0.125
c p distribution  0.875 0.125
c p distribution  0.875 0.125
c p distribution  0.875 0.125
c p distribution  0.875 0.125
c p distribution  0.875 0.125
c p distribution  0.875 0.125
c p distribution  0.875 0.125
c p distribution  0.875 0.125
c p distribution  0.875 0.125
c p distribution  0.875 0.125
c p distribution  0.875 0.125
c p distribution  0.875 0.125
c p distribution  0.875 0.125
c p distribution  0.875 0.125
c p distribution  0.875 0.125
c p distribution  0.875 0.125
c p distribution  0.875 0.125
c p distribution  0.875 0.125
c p distribution  0.875 0.125
c p distribution  0.875 0.125
c p distribution  0.875 0.125
c p distribution  0.875 0.125
c p distribution  0.875 0.125
c p distribution  0.875 0.125
c p distribution  0.875 0.125
c p distribution  0.875 0.125
c p distribution  0.875 0.125
c p distribution  0.875 0.125
c p distribution  0.875 0.125
c p distribution  0.875 0.125
c p distribution  0.875 0.125
c p distribution  0.875 0.125
c p distribution  0.875 0.125
c p distribution  0.875 0.125
c p distribution  0.875 0.125
c p distribution  0.875 0.125
c p distribution  0.875 0.125
c p distribution  0.875 0.125
c p distribution  0.875 0.125
c p distribution  0.875 0.125
c p distribution  0.875 0.125
c p distribution  0.875 0.125
c p distribution  0.875 0.125
c p distribution  0.875 0.125
c p distribution  0.875 0.125
c p distribution  0.875 0.125
c p distribution  0.875 0.125
c p distribution  0.875 0.125
c p distribution  0.875 0.125
c p distribution  0.875 0.125
c p distribution  0.875 0.125
c p distribution  0.875 0.125
c p distribution  0.875 0.125
c p distribution  0.875 0.125
c p distribution  0.875 0.125
c p distribution  0.875 0.125
c p distribution  0.875 0.125
c p distribution  0.875 0.125
c p distribution  0.875 0.125
c p distribution  0.875 0.125
c p distribution  0.875 0.125
c p distribution  0.875 0.125
c p distribution  0.875 0.125
c p distribution  0.875 0.125
c p distribution  0.875 0.125
c p distribution  0.875 0.125
c p distribution  0.875 0.125
c p distribution  0.875 0.125
c p distribution  0.875 0.125
c p distribution  0.875 0.125
c p distribution  0.875 0.125
c p distribution  0.875 0.125
c p distribution  0.875 0.125
c p distribution  0.875 0.125
c p distribution  0.875 0.125
c p distribution  0.875 0.125
c p distribution  0.875 0.125
c p distribution  0.875 0.125
c p distribution  0.875 0.125
c p distribution  0.875 0.125
c p distribution  0.875 0.125
215 0
-193 0
204 -173 -1 0
173 -204 -1 0
218 -211 -3 0
211 -218 -3 0
190 -169 -5 0
169 -190 -5 0
206 -185 -7 0
185 -206 -7 0
209 -197 -9 0
197 -209 -9 0
189 -220 -11 0
220 -189 -11 0
208 -213 -13 0
213 -208 -13 0
218 -222 -15 0
222 -218 -15 0
212 -176 -17 0
176 -212 -17 0
218 -203 -19 0
203 -218 -19 0
214 -184 -21 0
184 -214 -21 0
199 -208 -23 0
208 -199 -23 0
182 -217 -25 0
217 -182 -25 0
185 -226 -27 0
226 -185 -27 0
171 -192 -29 0
192 -171 -29 0
182 -200 -31 0
200 -182 -31 0
172 -196 -33 0
196 -172 -33 0
228 -216 -35 0
216 -228 -35 0
196 -188 -37 0
188 -196 -37 0
199 -206 -39 0
206 -199 -39 0
199 -208 -41 0
208 -199 -41 0
196 -204 -43 0
204 -196 -43 0
219 -187 -45 0
187 -219 -45 0
212 -177 -47 0
177 -212 -47 0
176 -199 -49 0
199 -176 -49 0
225 -188 -51 0
188 -225 -51 0
228 -227 -53 0
227 -228 -53 0
180 -172 -55 0
172 -180 -55 0
170 -206 -57 0
206 -170 -57 0
189 -220 -59 0
220 -189 -59 0
179 -181 -61 0
181 -179 -61 0
176 -206 -63 0
206 -176 -63 0
212 -193 -65 0
193 -212 -65 0
208 -227 -67 0
227 -208 -67 0
189 -195 -69 0
195 -189 -69 0
174 -210 -71 0
210 -174 -71 0
191 -209 -73 0
209 -191 -73 0
169 -202 -75 0
202 -169 -75 0
174 -225 -77 0
225 -174 -77 0
201 -202 -79 0
202 -201 -79 0
180 -215 -81 0
215 -180 -81 0
220 -223 -83 0
223 -220 -83 0
201 -232 -85 0
232 -201 -85 0
185 -226 -87 0
226 -185 -87 0
181 -211 -89 0
211 -181 -89 0
177 -183 -91 0
183 -177 -91 0
209 -232 -93 0
232 -209 -93 0
218 -197 -95 0
197 -218 -95 0
186 -198 -97 0
198 -186 -97 0
173 -230 -99 0
230 -173 -99 0
221 -198 -101 0
198 -221 -101 0
223 -231 -103 0
231 -223 -103 0
209 -203 -105 0
203 -209 -105 0
171 -192 -107 0
192 -171 -107 0
215 -172 -109 0
172 -215 -109 0
221 -212 -111 0
212 -221 -111 0
186 -198 -113 0
198 -186 -113 0
178 -175 -115 0
175 -178 -115 0
205 -208 -117 0
208 -205 -117 0
208 -199 -119 0
199 -208 -119 0
200 -197 -121 0
197 -200 -121 0
225 -187 -123 0
187 -225 -123 0
224 -232 -125 0
232 -224 -125 0
175 -202 -127 0
202 -175 -127 0
211 -194 -129 0
194 -211 -129 0
171 -222 -131 0
222 -171 -131 0
205 -230 -133 0
230 -205 -133 0
213 -214 -135 0
214 -213 -135 0
181 -222 -137 0
222 -181 -137 0
171 -219 -139 0
219 -171 -139 0
212 -199 -141 0
199 -212 -141 0
205 -230 -143 0
230 -205 -143 0
169 -175 -145 0
175 -169 -145 0
217 -200 -147 0
200 -217 -147 0
226 -189 -149 0
189 -226 -149 0
226 -195 -151 0
195 -226 -151 0
212 -176 -153 0
176 -212 -153 0
221 -183 -155 0
183 -221 -155 0
192 -187 -157 0
187 -192 -157 0
219 -193 -159 0
193 -219 -159 0
203 -217 -161 0
217 -203 -161 0
207 -190 -163 0
190 -207 -163 0
186 -172 -165 0
172 -186 -165 0
176 -177 -167 0
177 -176 -167 0

